numScenes = 9;
numActors = 5;
% optimal cost: 111
slackedCost = 120;
ia = [|
1,1,0,1,0,1,1,0,1|
1,1,0,1,1,1,0,1,0|
1,1,0,0,0,0,1,1,0|
1,0,0,0,1,1,0,0,1|
0,0,1,0,1,1,1,1,0|];
c = [1,1,1,1,1];
d = [2,4,1,3,3,2,5,7,7];
